NAME /Users/henri/Research/solvers/instances/idol-instances/robust/collection/spp_dkp_Lefebvre_et_al_2026/shortest_path_3_1/uncertainty_sets/discrete_knapsack
ROWS
 N  OBJ
 L  primal_lower
COLUMNS
    MARKER    'MARKER'                 'INTORG'
    y[0,1]     OBJ        0
    y[0,1]     primal_lower -1.4
    y[0,2]     OBJ        0
    y[0,2]     primal_lower -7.41
    y[1,0]     OBJ        0
    y[1,0]     primal_lower -1.62
    y[1,2]     OBJ        0
    y[1,2]     primal_lower -2.93
    y[2,0]     OBJ        0
    y[2,0]     primal_lower -3.98
    y[2,1]     OBJ        0
    y[2,1]     primal_lower -10.45
    u[0,1]     OBJ        0
    u[0,1]     primal_lower 58
    u[0,2]     OBJ        0
    u[0,2]     primal_lower 35
    u[1,0]     OBJ        0
    u[1,0]     primal_lower 35
    u[1,2]     OBJ        0
    u[1,2]     primal_lower 51
    u[2,0]     OBJ        0
    u[2,0]     primal_lower 73
    u[2,1]     OBJ        0
    u[2,1]     primal_lower 49
    MARKER    'MARKER'                 'INTEND'
RHS
    RHS       primal_lower 73
BOUNDS
 LI BND       y[0,1]     0
 UI BND       y[0,1]     1
 LI BND       y[0,2]     0
 UI BND       y[0,2]     1
 LI BND       y[1,0]     0
 UI BND       y[1,0]     1
 LI BND       y[1,2]     0
 UI BND       y[1,2]     1
 LI BND       y[2,0]     0
 UI BND       y[2,0]     1
 LI BND       y[2,1]     0
 UI BND       y[2,1]     1
 LI BND       u[0,1]     0
 UI BND       u[0,1]     1
 LI BND       u[0,2]     0
 UI BND       u[0,2]     1
 LI BND       u[1,0]     0
 UI BND       u[1,0]     1
 LI BND       u[1,2]     0
 UI BND       u[1,2]     1
 LI BND       u[2,0]     0
 UI BND       u[2,0]     1
 LI BND       u[2,1]     0
 UI BND       u[2,1]     1
ENDATA
